SPARKNaCl/why3-z3/sparknacl-stream.adb_243_39_initialization_1.smt2
;; produced by z3_gnatprove.drv ;;
(set-info :smt-lib-version 2.5)
(set-info :source |VC generated by SPARK 2014|)
(set-info :category industrial)
(set-info :status unknown)
;;; generated by SMT-LIB2 driver
;;; SMT-LIB2 driver: bit-vectors, common part
;;; SMT-LIB2: integer arithmetic
(declare-sort tinteger_32B 0)

;; "tinteger_32B'int"
(declare-fun tinteger_32Bqtint (tinteger_32B) Int)

;; "tinteger_32B'axiom"
(assert
  (forall ((i tinteger_32B))
    (and
      (<= (- 2147483648) (tinteger_32Bqtint i))
      (<= (tinteger_32Bqtint i) 2147483647))))

;; "in_range"
(define-fun in_range ((x Int)) Bool
  (and (<= (- 2147483648) x) (<= x 2147483647)))

;; "to_rep"
(define-fun to_rep ((x tinteger_32B)) Int
  (tinteger_32Bqtint x))

;; "of_rep"
(declare-fun of_rep (Int) tinteger_32B)

;; "inversion_axiom"
(assert
  (forall ((x tinteger_32B))
    (! (= (of_rep (to_rep x)) x) :pattern ((to_rep x)) )))

;; "range_axiom"
(assert
  (forall ((x tinteger_32B))
    (! (in_range (to_rep x)) :pattern ((to_rep x)) )))

;; "coerce_axiom"
(assert
  (forall ((x Int))
    (! (=> (in_range x) (= (to_rep (of_rep x)) x)) :pattern ((to_rep
                                                               (of_rep x))) )))

;; "in_range"
(define-fun in_range1 ((x Int)) Bool
  (and (<= 0 x) (<= x 2147483647)))

(declare-sort byte 0)

;; "to_rep"
(declare-fun to_rep1 (byte) (_ BitVec 8))

;; "of_rep"
(declare-fun of_rep1 ((_ BitVec 8)) byte)

;; "inversion_axiom"
(assert
  (forall ((x byte)) (! (= (of_rep1 (to_rep1 x)) x) :pattern ((to_rep1 x)) )))

;; "range_axiom"
(assert true)

;; "coerce_axiom"
(assert
  (forall ((x (_ BitVec 8)))
    (! (= (to_rep1 (of_rep1 x)) x) :pattern ((to_rep1 (of_rep1 x))) )))

(declare-sort map1 0)

(declare-datatypes ()
  ((map__ref (map__refqtmk (map__content map1)))))

;; "has_bounds"
(declare-fun has_bounds (map1
  Int
  Int) Bool)

;; "get"
(declare-fun get (map1
  Int) byte)

(declare-datatypes ()
  ((t (tqtmk (rec__first tinteger_32B)(rec__last tinteger_32B)))))

;; "mk"
(declare-fun mk (Int
  Int) t)

;; "mk_def"
(assert
  (forall ((f Int) (l Int))
    (! (=>
         (in_range f)
         (=>
           (in_range l)
           (and
             (= (to_rep (rec__first (mk f l))) f)
             (= (to_rep (rec__last (mk f l))) l)))) :pattern ((mk f l)) )))

;; "dynamic_property"
(define-fun dynamic_property ((range_first Int) (range_last Int) (low Int) (high Int)) Bool
  (and
    (in_range low)
    (and
      (in_range high)
      (=> (<= low high) (and (in_range1 low) (in_range1 high))))))

(declare-datatypes ()
  ((us_t (us_tqtmk (elts map1)(rt t)))))

;; "of_array"
(define-fun of_array ((a map1) (f Int) (l Int)) us_t
  (us_tqtmk a (mk f l)))

;; "first"
(define-fun first ((a us_t)) Int
  (to_rep (rec__first (rt a))))

;; "last"
(define-fun last ((a us_t)) Int
  (to_rep (rec__last (rt a))))

;; "well_formed"
(define-fun well_formed ((a us_t)) Bool
  (has_bounds
    (elts a)
    (to_rep (rec__first (rt a)))
    (to_rep (rec__last (rt a)))))

(declare-const c__first tinteger_32B)

(declare-const c__last tinteger_32B)

(declare-const m us_t)

(declare-const n map1)

(declare-const xor_m Bool)

(declare-sort us_main_type 0)

(declare-datatypes ()
  ((us_split_fields
   (us_split_fieldsqtmk
   (rec__ada___sparknacl__core__chacha20_context us_main_type)))))

(declare-datatypes ()
  ((us_split_fields__ref
   (us_split_fields__refqtmk (us_split_fields__content us_split_fields)))))

(declare-datatypes ()
  ((us_rep (us_repqtmk (us_split_fields1 us_split_fields)))))

(declare-datatypes ()
  ((byte__init_wrapper
   (byte__init_wrapperqtmk (rec__value byte)(us_attr__init Bool)))))

(declare-sort map2 0)

(declare-datatypes ()
  ((map__ref1 (map__refqtmk1 (map__content1 map2)))))

;; "has_bounds"
(declare-fun has_bounds1 (map2
  Int
  Int) Bool)

;; "get"
(declare-fun get1 (map2
  Int) byte__init_wrapper)

;; "slide"
(declare-fun slide (map2
  Int
  Int) map2)

;; "slide_eq"
(assert
  (forall ((a map2) (first1 Int))
    (! (= (slide a first1 first1) a) :pattern ((slide a first1 first1)) )))

;; "slide_def"
(assert
  (forall ((a map2) (old_first Int) (new_first Int))
    (! (and
         (forall ((i Int))
           (! (= (get1 (slide a old_first new_first) i) (get1
                                                          a
                                                          (- i (- new_first old_first)))) :pattern (
           (get1
             (slide a old_first new_first)
             i)) ))
         (forall ((new_last Int))
           (! (=>
                (has_bounds1
                  a
                  old_first
                  (- new_last (- new_first old_first)))
                (has_bounds1
                  (slide a old_first new_first)
                  new_first
                  new_last)) :pattern ((has_bounds1
                                         (slide a old_first new_first)
                                         new_first
                                         new_last)) ))) :pattern ((slide
                                                                    a
                                                                    old_first
                                                                    new_first)) )))

(declare-datatypes ()
  ((t1 (tqtmk1 (rec__first1 tinteger_32B)(rec__last1 tinteger_32B)))))

;; "mk"
(declare-fun mk1 (Int
  Int) t1)

;; "mk_def"
(assert
  (forall ((f Int) (l Int))
    (! (=>
         (in_range f)
         (=>
           (in_range l)
           (and
             (= (to_rep (rec__first1 (mk1 f l))) f)
             (= (to_rep (rec__last1 (mk1 f l))) l)))) :pattern ((mk1 f l)) )))

(declare-datatypes ()
  ((us_t1 (us_tqtmk1 (elts1 map2)(rt1 t1)))))

;; "to_array"
(define-fun to_array ((a us_t1)) map2
  (elts1 a))

;; "of_array"
(define-fun of_array1 ((a map2) (f Int) (l Int)) us_t1
  (us_tqtmk1 a (mk1 f l)))

;; "first"
(define-fun first1 ((a us_t1)) Int
  (to_rep (rec__first1 (rt1 a))))

;; "last"
(define-fun last1 ((a us_t1)) Int
  (to_rep (rec__last1 (rt1 a))))

;; "well_formed"
(define-fun well_formed1 ((a us_t1)) Bool
  (has_bounds1
    (elts1 a)
    (to_rep (rec__first1 (rt1 a)))
    (to_rep (rec__last1 (rt1 a)))))

;; "dynamic_invariant"
(define-fun dynamic_invariant ((temp___expr_256 us_t) (temp___is_init_252 Bool) (temp___skip_constant_253 Bool) (temp___do_toplevel_254 Bool) (temp___do_typ_inv_255 Bool)) Bool
  (and
    (=>
      (not (= temp___skip_constant_253 true))
      (dynamic_property
        0
        2147483647
        (first temp___expr_256)
        (last temp___expr_256)))
    (well_formed temp___expr_256)))

;; "dynamic_invariant_r"
(define-fun dynamic_invariant_r ((temp___expr_262 us_t1) (temp___is_init_258 Bool) (temp___skip_constant_259 Bool) (temp___do_toplevel_260 Bool) (temp___do_typ_inv_261 Bool)) Bool
  (and
    (=>
      (not (= temp___skip_constant_259 true))
      (dynamic_property
        0
        2147483647
        (first1 temp___expr_262)
        (last1 temp___expr_262)))
    (well_formed1 temp___expr_262)))

;; "__is_initialized"
(define-fun us_is_initialized ((temp___expr_265 us_t1)) Bool
  (forall ((temp___266 Int))
    (=>
      (and
        (<= (first1 temp___expr_265) temp___266)
        (<= temp___266 (last1 temp___expr_265)))
      (= (us_attr__init (get1 (to_array temp___expr_265) temp___266)) true))))

;; "convert"
(declare-fun convert (map1) map2)

;; "convert__def"
(assert
  (forall ((a map1))
    (let ((b (convert a)))
      (forall ((temp___170 Int))
        (and
          (= (us_attr__init
               (byte__init_wrapperqtmk
                 (of_rep1 (to_rep1 (get a temp___170)))
                 true)) (us_attr__init (get1 b temp___170)))
          (= (to_rep1
               (rec__value
                 (byte__init_wrapperqtmk
                   (of_rep1 (to_rep1 (get a temp___170)))
                   true))) (to_rep1 (rec__value (get1 b temp___170)))))))))

(declare-const c map1)

(declare-const s__split_fields us_main_type)

;; "s__split_fields'unused"
(define-fun s__split_fieldsqtunused () us_split_fields__ref
  (us_split_fields__refqtmk (us_split_fieldsqtmk s__split_fields)))

;; "c'unused"
(define-fun cqtunused () map__ref
  (map__refqtmk c))

;; "Assume"
(assert
  (and
    (dynamic_property 0 2147483647 (to_rep c__first) (to_rep c__last))
    (well_formed (of_array c (to_rep c__first) (to_rep c__last)))))

;; "Assume"
(assert (dynamic_invariant m true false true true))

;; "Assume"
(assert (has_bounds n 0 11))

;; "Assume"
(assert true)

;; "Assume"
(assert true)

;; "Assume"
(assert
  (and
    (and
      (and
        (and (= (first m) 0) (= (to_rep c__first) 0))
        (< (to_rep c__last) 2147483647))
      (=> (= xor_m true) (= (to_rep c__last) (last m))))
    (=> (not (= xor_m true)) (= (last m) 63))))

;; "Assume"
(assert true)

;; "Assume"
(assert true)

;; "o"
(define-fun o () us_split_fields
  (us_split_fieldsqtmk s__split_fields))

;; "__split_fields__content'result'unused"
(define-fun us_split_fields__contentqtresultqtunused () us_split_fields
  o)

;; "__rep'mk'result'unused"
(define-fun us_repqtmkqtresultqtunused () us_rep
  (us_repqtmk o))

(declare-const s__split_fields1 us_main_type)

;; "s__split_fields'unused"
(define-fun s__split_fieldsqtunused1 () us_split_fields__ref
  (us_split_fields__refqtmk (us_split_fieldsqtmk s__split_fields1)))

;; "H"
(assert true)

;; "H"
(assert true)

;; "H"
(assert true)

(declare-const o1 Int)

;; "Ensures"
(assert (= (to_rep c__last) o1))

;; "to_rep'result'unused"
(define-fun to_repqtresultqtunused () Int
  o1)

(declare-const o2 Int)

;; "Ensures"
(assert (= (to_rep c__first) o2))

;; "to_rep'result'unused"
(define-fun to_repqtresultqtunused1 () Int
  o2)

;; "map__content'result'unused"
(define-fun map__contentqtresultqtunused () map1
  c)

;; "temp___1638"
(define-fun temp___1638 () us_t
  (of_array c o2 o1))

;; "of_array'result'unused"
(define-fun of_arrayqtresultqtunused () us_t
  temp___1638)

;; "temp___1639"
(define-fun temp___1639 () map1
  c)

;; "to_array'result'unused"
(define-fun to_arrayqtresultqtunused () map1
  temp___1639)

;; "o"
(define-fun o3 () Int
  o1)

;; "last'result'unused"
(define-fun lastqtresultqtunused () Int
  o3)

;; "o"
(define-fun o4 () Int
  o2)

;; "first'result'unused"
(define-fun firstqtresultqtunused () Int
  o4)

;; "o"
(define-fun o5 () map2
  (convert temp___1639))

;; "convert'result'unused"
(define-fun convertqtresultqtunused () map2
  o5)

;; "temp___compl_1640"
(define-fun temp___compl_1640 () us_t1
  (of_array1 o5 o4 o3))

;; "of_array'result'unused"
(define-fun of_arrayqtresultqtunused1 () us_t1
  temp___compl_1640)

;; "o"
(define-fun o6 () map2
  o5)

;; "to_array'result'unused"
(define-fun to_arrayqtresultqtunused1 () map2
  o6)

;; "param__c'unused"
(define-fun param__cqtunused () map__ref1
  (map__refqtmk1 o6))

;; "map__ref'mk'result'unused"
(define-fun map__refqtmkqtresultqtunused () map__ref1
  (map__refqtmk1 o6))

;; "o"
(define-fun o7 () Bool
  xor_m)

;; "o"
(define-fun o8 () us_t
  m)

;; "o"
(define-fun o9 () Int
  o3)

;; "last'result'unused"
(define-fun lastqtresultqtunused1 () Int
  o9)

(declare-const o10 tinteger_32B)

;; "Ensures"
(assert (= (to_rep o10) o9))

;; "of_rep'result'unused"
(define-fun of_repqtresultqtunused () tinteger_32B
  o10)

;; "o"
(define-fun o11 () Int
  o4)

;; "first'result'unused"
(define-fun firstqtresultqtunused1 () Int
  o11)

(declare-const o12 tinteger_32B)

;; "Ensures"
(assert (= (to_rep o12) o11))

;; "of_rep'result'unused"
(define-fun of_repqtresultqtunused1 () tinteger_32B
  o12)

;; "o"
(define-fun o13 () us_split_fields
  (us_split_fieldsqtmk s__split_fields1))

;; "__split_fields__content'result'unused"
(define-fun us_split_fields__contentqtresultqtunused1 () us_split_fields
  o13)

;; "__rep'mk'result'unused"
(define-fun us_repqtmkqtresultqtunused1 () us_rep
  (us_repqtmk o13))

(declare-const param__c map2)

;; "param__c'unused"
(define-fun param__cqtunused1 () map__ref1
  (map__refqtmk1 param__c))

;; "H"
(assert (us_is_initialized (of_array1 param__c (to_rep o12) (to_rep o10))))

;; "H"
(assert
  (dynamic_invariant_r
    (of_array1 param__c (to_rep o12) (to_rep o10))
    true
    true
    true
    true))

;; "H"
(assert true)

;; "H"
(assert true)

;; "o"
(define-fun o14 () Int
  o3)

;; "last'result'unused"
(define-fun lastqtresultqtunused2 () Int
  o14)

;; "o"
(define-fun o15 () Int
  o4)

;; "first'result'unused"
(define-fun firstqtresultqtunused2 () Int
  o15)

;; "map__content'result'unused"
(define-fun map__contentqtresultqtunused1 () map2
  param__c)

;; "temp___1644"
(define-fun temp___1644 () us_t1
  (of_array1 param__c o15 o14))

;; "of_array'result'unused"
(define-fun of_arrayqtresultqtunused2 () us_t1
  temp___1644)

(declare-const o16 Int)

;; "Ensures"
(assert (= (to_rep c__first) o16))

;; "to_rep'result'unused"
(define-fun to_repqtresultqtunused2 () Int
  o16)

;; "o"
(define-fun o17 () Int
  o15)

;; "first'result'unused"
(define-fun firstqtresultqtunused3 () Int
  o17)

;; "o"
(define-fun o18 () map2
  param__c)

;; "to_array'result'unused"
(define-fun to_arrayqtresultqtunused2 () map2
  o18)

;; "temp___1648"
(define-fun temp___1648 () map2
  (slide o18 o17 o16))

;; "slide'result'unused"
(define-fun slideqtresultqtunused () map2
  temp___1648)

(declare-const o19 Int)

;; "Ensures"
(assert (= (to_rep c__last) o19))

;; "to_rep'result'unused"
(define-fun to_repqtresultqtunused3 () Int
  o19)

(declare-const o20 Int)

;; "Ensures"
(assert (= (to_rep c__first) o20))

;; "to_rep'result'unused"
(define-fun to_repqtresultqtunused4 () Int
  o20)

;; "temp___1649"
(define-fun temp___1649 () us_t1
  (of_array1 temp___1648 o20 o19))

;; "of_array'result'unused"
(define-fun of_arrayqtresultqtunused3 () us_t1
  temp___1649)

;; Goal "def'vc"
;; File "sparknacl-stream.adb", line 36, characters 0-0
(assert
  (not (us_is_initialized temp___1649)))

(check-sat)
